#
# Input Template for Calculation 'scf'
#
# Version: 1.0.0
#
# Notes:
# 
# (1) This file applies for periodic systems only.
#
# (2) The built-in Bravis lattice types are rather unconvenient.
#     So we set ibrav to 0, celldm(1) to 1.8897, and specify the
#     coordinates of lattice vectors in ANGSTROMS under card
#     'CELL_PARAMETERS {alat}'.
#
&CONTROL
    prefix           = '0.000'
    calculation      = 'scf'
    restart_mode     = 'from_scratch'
    pseudo_dir       = './'
    outdir           = './'
    wfcdir           = './'
    verbosity        = 'high'
    wf_collect       = .TRUE.
/
&SYSTEM
    ibrav            = 0
    celldm(1)        = 1.889726125
    ntyp             = 2
    nat              = 4
    ecutwfc          = 70
    nbnd             = 16
    occupations      = 'smearing'
    smearing         = 'gaussian'
    degauss          = 0.005

/
&ELECTRONS
    electron_maxstep = 250
    conv_thr         = 1.0d-10
    mixing_mode      = 'plain'
    mixing_beta      = 0.7
    mixing_ndim      = 8
    diagonalization  = 'david'
    diago_david_ndim = 4
    diago_full_acc   = .TRUE.
/
ATOMIC_SPECIES
  In 114.8  In.pbe-mt_fhi.UPF
  Se  78.96 Se.pbe-mt_fhi.UPF
CELL_PARAMETERS {alat}
   2.027733378   3.512137236   0.000000000
  -2.027733378   3.512137236   0.000000000
   0.000000000   0.000000000  20.500000000
ATOMIC_POSITIONS {crystal}
  In   0.333334671   0.333334671   0.431781565
  In   0.333334812   0.333334812   0.568224866
  Se   0.666665091   0.666665091   0.369744698
  Se   0.666665427   0.666665427   0.630258871

K_POINTS {automatic}
 12 12 1 0 0 0
