VO2_R                                   
   1.00984688000000     
     4.6156077436034799    0.0000000000000000    0.0000000000000000
     0.0000000000000000    4.6156077436034799    0.0000000000000000
     0.0000000000000000    0.0000000000000000    2.7744256601029362
   V    O 
     2     4
Direct
  0.0000000000000000  0.0000000000000000  0.0000000000000000
  0.5000000000000000  0.5000000000000000  0.5000000000000000
  0.2933554944910975  0.2933554944910975 -0.0000000000000000
  0.7066445055089026  0.7066445055089026 -0.0000000000000000
  0.2066445055089024  0.7933554944910974  0.5000000000000000
  0.7933554944910974  0.2066445055089024  0.5000000000000000
 
  0.00000000E+00  0.00000000E+00  0.00000000E+00
  0.00000000E+00  0.00000000E+00  0.00000000E+00
  0.00000000E+00  0.00000000E+00  0.00000000E+00
  0.00000000E+00  0.00000000E+00  0.00000000E+00
  0.00000000E+00  0.00000000E+00  0.00000000E+00
  0.00000000E+00  0.00000000E+00  0.00000000E+00
