 V  O 
 1.0000000000000000
     3.2958650681870223    0.0000000000000004    3.2958650681870232
     3.2958650681870223    0.0000000000000013   -3.2958650681870232
    -0.0000000000000004    2.8017450966468904    0.0000000000000002
 V   O  
   2   4
Cartesian
  0.0000000000000000  0.0000000000000000  0.0000000000000000
  3.2958650681870219  1.4008725483234461  0.0000000000000001
  1.9337202537078773  0.0000000000000005  0.0000000000000000
  4.6580098826661676  0.0000000000000013  0.0000000000000002
  3.2958650681870214  1.4008725483234463 -1.9337202537078779
  3.2958650681870214  1.4008725483234459  1.9337202537078784
