Generated by VASPKIT code
 1.000000
    5.3788916004591707    0.0000000000000000    0.0000000000000000
    0.0000000000000000    4.6102875237197845    0.0000000000000000
   -2.4912080413743523    0.0000000000000000    4.8194756615044749
   V    O 
     4     8
Direct
    0.2640007497671135    0.0198032082476917    0.2901762441650251      V1
    0.7359992502328865    0.9801967917523083    0.7098237558349749      V2
    0.7359992502328865    0.5198032082476917    0.2098237558349749      V3
    0.2640007497671135    0.4801967917523083    0.7901762441650251      V4
    0.3933422302993312    0.7844765777184591    0.6096453136887533      O1
    0.6066577697006688    0.2155234222815409    0.3903546863112467      O2
    0.6066577697006688    0.2844765777184590    0.8903546863112467      O3
    0.3933422302993312    0.7155234222815409    0.1096453136887532      O4
    0.1003304004969059    0.3026650499674233    0.4059291576534578      O5
    0.8996695995030941    0.6973349500325767    0.5940708423465422      O6
    0.8996695995030941    0.8026650499674233    0.0940708423465422      O7
    0.1003304004969059    0.1973349500325767    0.9059291576534578      O8
