include(common.m4)dnl

# Ionic relaxation
IBRION = 2
EDIFF  = 1E-4
EDIFFG = -0.01
NELM   = 250
NSW    = 400 