#
# Input Template for pp.x
#
# Version: 1.0.0
#
# Notes:
#
# (1) This file is for general-purpose calculation.
#
# (2) By default the output is in G98 cube format
#
&INPUTPP
    prefix         = 
    outdir         = './'
    filplot        = 
    plot_num       = 
    spin_component = 0
/
&PLOT
    iflag          = 3
    output_format  = 6
    fileout        = '.cube'
/
