#
# Input Template for pp.x
#
# Version: 1.0.0
#
# Notes:
#
# (1) This file is for calculating total charge density.
#
# (2) By default the output is in G98 cube format
#
&INPUTPP
    prefix         = 
    outdir         = './'
    filplot        = 'rho'
    plot_num       = 0
    spin_component = 0
/
&PLOT
    iflag          = 3
    output_format  = 6
    fileout        = 'rho.cube'
/
