 C 
 1.0000000000000000
    59.0400000000000063   38.3476048795749378    0.0000000000000000
    -3.6899999999999924   70.3039422792207347    0.0000000000000000
     0.0000000000000000    0.0000000000000000   10.0000000000000000
 C  
 3276
Direct
 -0.0012210012210012  0.3137973137973138  0.0000000000000000
  0.6593406593406594  0.7912087912087911  0.3349000000000000
  0.6275946275946277  0.6642246642246641  0.3349000000000000
  0.6263736263736265  0.6849816849816850  0.3349000000000000
  0.6459096459096461  0.6862026862026861  0.3349000000000000
  0.6446886446886447  0.7069597069597068  0.3349000000000000
  0.6630036630036630  0.7289377289377289  0.3349000000000000
  0.6654456654456655  0.3137973137973137  0.0000000000000000
  0.6837606837606838  0.2735042735042735  0.0000000000000000
  0.6849816849816850  0.2930402930402931  0.0000000000000000
  0.7057387057387058  0.2918192918192918  0.0000000000000000
  0.7069597069597071  0.3113553113553113  0.0000000000000000
  0.7277167277167278  0.3101343101343102  0.0000000000000000
  0.7289377289377289  0.3296703296703297  0.0000000000000000
  0.7496947496947498  0.3284493284493285  0.0000000000000000
  0.6800976800976801  0.2148962148962149  0.0000000000000000
  0.6813186813186813  0.2344322344322344  0.0000000000000000
  0.7020757020757021  0.2332112332112332  0.0000000000000000
  0.7032967032967034  0.2527472527472527  0.0000000000000000
  0.7240537240537241  0.2515262515262515  0.0000000000000000
  0.7252747252747254  0.2710622710622711  0.0000000000000000
  0.7460317460317462  0.2698412698412698  0.0000000000000000
  0.6605616605616607  0.7704517704517704  0.3349000000000000
  0.6410256410256411  0.7692307692307692  0.3349000000000000
  0.6422466422466423  0.7484737484737484  0.3349000000000000
  0.6227106227106228  0.7472527472527472  0.3349000000000000
  0.5286935286935288  0.6788766788766787  0.3349000000000000
  0.5274725274725276  0.6996336996336996  0.3349000000000000
  0.5470085470085471  0.7008547008547008  0.3349000000000000
  0.5457875457875458  0.7216117216117216  0.3349000000000000
  0.5653235653235653  0.7228327228327227  0.3349000000000000
  0.5641025641025642  0.7435897435897434  0.3349000000000000
  0.5836385836385838  0.7448107448107447  0.3349000000000000
  0.5824175824175825  0.7655677655677654  0.3349000000000000
  0.6019536019536020  0.7667887667887667  0.3349000000000000
  0.6007326007326008  0.7875457875457874  0.3349000000000000
  0.7472527472527474  0.2893772893772893  0.0000000000000000
  0.6202686202686204  0.7887667887667887  0.3349000000000000
  0.6385836385836386  0.8107448107448108  0.3349000000000000
  0.6373626373626374  0.8315018315018314  0.3349000000000000
  0.6568986568986570  0.8327228327228327  0.3349000000000000
  0.6556776556776557  0.8534798534798534  0.3349000000000000
  0.5677655677655679  0.6813186813186812  0.3349000000000000
  0.5873015873015874  0.6825396825396826  0.3349000000000000
  0.5860805860805861  0.7032967032967032  0.3349000000000000
  0.6056166056166057  0.7045177045177043  0.3349000000000000
  0.6043956043956044  0.7252747252747253  0.3349000000000000
  0.6239316239316239  0.7264957264957264  0.3349000000000000
  0.6190476190476191  0.8095238095238094  0.3349000000000000
  0.5091575091575092  0.6776556776556777  0.3349000000000000
  0.7680097680097682  0.2881562881562881  0.0000000000000000
  0.7899877899877902  0.3064713064713065  0.0000000000000000
  0.7179487179487180  0.1538461538461538  0.0000000000000000
  0.7387057387057387  0.1526251526251526  0.0000000000000000
  0.7399267399267401  0.1721611721611722  0.0000000000000000
  0.7606837606837608  0.1709401709401710  0.0000000000000000
  0.7619047619047620  0.1904761904761905  0.0000000000000000
  0.7826617826617828  0.1892551892551893  0.0000000000000000
  0.7838827838827840  0.2087912087912088  0.0000000000000000
  0.8046398046398047  0.2075702075702076  0.0000000000000000
  0.8058608058608059  0.2271062271062271  0.0000000000000000
  0.8266178266178268  0.2258852258852258  0.0000000000000000
  0.8278388278388279  0.2454212454212453  0.0000000000000000
  0.8485958485958486  0.2442002442002442  0.0000000000000000
  0.8498168498168499  0.2637362637362637  0.0000000000000000
  0.8705738705738707  0.2625152625152626  0.0000000000000000
  0.8717948717948719  0.2820512820512820  0.0000000000000000
  0.8925518925518926  0.2808302808302808  0.0000000000000000
  0.8937728937728938  0.3003663003663004  0.0000000000000000
  0.9145299145299146  0.2991452991452991  0.0000000000000000
  0.9157509157509159  0.3186813186813186  0.0000000000000000
  0.9365079365079366  0.3174603174603176  0.0000000000000000
  0.6691086691086692  0.0390720390720391  0.0000000000000000
  0.7167277167277167  0.1343101343101343  0.0000000000000000
  0.6959706959706961  0.1355311355311355  0.0000000000000000
  0.6947496947496948  0.1159951159951160  0.0000000000000000
  0.6739926739926739  0.1172161172161172  0.0000000000000000
  0.7912087912087913  0.3260073260073261  0.0000000000000000
  0.8119658119658122  0.3247863247863248  0.0000000000000000
  0.6764346764346765  0.1562881562881563  0.0000000000000000
  0.6776556776556777  0.1758241758241759  0.0000000000000000
  0.6984126984126985  0.1746031746031745  0.0000000000000000
  0.6996336996336997  0.1941391941391941  0.0000000000000000
  0.7203907203907204  0.1929181929181929  0.0000000000000000
  0.7216117216117217  0.2124542124542124  0.0000000000000000
  0.7423687423687425  0.2112332112332113  0.0000000000000000
  0.7435897435897437  0.2307692307692308  0.0000000000000000
  0.7692307692307694  0.3076923076923077  0.0000000000000000
  0.7643467643467644  0.2295482295482296  0.0000000000000000
  0.7863247863247864  0.2478632478632478  0.0000000000000000
  0.7875457875457876  0.2673992673992673  0.0000000000000000
  0.8083028083028084  0.2661782661782662  0.0000000000000000
  0.8095238095238095  0.2857142857142857  0.0000000000000000
  0.8302808302808304  0.2844932844932845  0.0000000000000000
  0.8315018315018315  0.3040293040293041  0.0000000000000000
  0.8522588522588523  0.3028083028083028  0.0000000000000000
  0.8534798534798536  0.3223443223443224  0.0000000000000000
  0.8742368742368744  0.3211233211233211  0.0000000000000000
  0.6727716727716728  0.0976800976800977  0.0000000000000000
  0.7655677655677656  0.2490842490842491  0.0000000000000000
  0.6703296703296704  0.0586080586080586  0.0000000000000000
  0.6520146520146519  0.9157509157509157  0.3349000000000000
  0.6336996336996338  0.8937728937728936  0.3349000000000000
  0.4065934065934066  0.7545787545787543  0.3349000000000000
  0.4261294261294262  0.7557997557997558  0.3349000000000000
  0.4249084249084250  0.7765567765567765  0.3349000000000000
  0.4444444444444445  0.7777777777777778  0.3349000000000000
  0.4432234432234433  0.7985347985347985  0.3349000000000000
  0.4627594627594628  0.7997557997557996  0.3349000000000000
  0.4615384615384616  0.8205128205128204  0.3349000000000000
  0.4810744810744811  0.8217338217338216  0.3349000000000000
  0.4798534798534799  0.8424908424908425  0.3349000000000000
  0.4993894993894994  0.8437118437118436  0.3349000000000000
  0.4981684981684983  0.8644688644688643  0.3349000000000000
  0.5177045177045179  0.8656898656898655  0.3349000000000000
  0.5164835164835166  0.8864468864468863  0.3349000000000000
  0.5360195360195361  0.8876678876678875  0.3349000000000000
  0.5347985347985349  0.9084249084249082  0.3349000000000000
  0.5543345543345544  0.9096459096459095  0.3349000000000000
  0.5531135531135533  0.9304029304029302  0.3349000000000000
  0.5726495726495727  0.9316239316239316  0.3349000000000000
  0.5714285714285715  0.9523809523809523  0.3349000000000000
  0.5909645909645910  0.9536019536019537  0.3349000000000000
  0.5897435897435899  0.9743589743589743  0.3349000000000000
  0.4078144078144079  0.7338217338217338  0.3349000000000000
  0.3882783882783883  0.7326007326007327  0.3349000000000000
  0.3894993894993896  0.7118437118437118  0.3349000000000000
  0.3699633699633700  0.7106227106227107  0.3349000000000000
  0.4029304029304031  0.8168498168498168  0.3349000000000000
  0.4224664224664226  0.8180708180708179  0.3349000000000000
  0.4212454212454212  0.8388278388278386  0.3349000000000000
  0.4407814407814409  0.8400488400488400  0.3349000000000000
  0.4395604395604397  0.8608058608058607  0.3349000000000000
  0.4590964590964592  0.8620268620268620  0.3349000000000000
  0.4578754578754580  0.8827838827838825  0.3349000000000000
  0.4774114774114775  0.8840048840048840  0.3349000000000000
  0.4761904761904763  0.9047619047619047  0.3349000000000000
  0.4957264957264959  0.9059829059829060  0.3349000000000000
  0.6092796092796094  0.9755799755799753  0.3349000000000000
  0.4945054945054946  0.9267399267399267  0.3349000000000000
  0.5128205128205129  0.9487179487179488  0.3349000000000000
  0.5323565323565325  0.9499389499389498  0.3349000000000000
  0.5311355311355311  0.9706959706959707  0.3349000000000000
  0.5506715506715508  0.9719169719169718  0.3349000000000000
  0.5494505494505495  0.9926739926739927  0.3349000000000000
  0.5689865689865691  0.9938949938949939  0.3349000000000000
  0.3333333333333334  0.6666666666666666  0.3349000000000000
  0.3528693528693529  0.6678876678876678  0.3349000000000000
  0.3516483516483517  0.6886446886446886  0.3349000000000000
  0.3711843711843712  0.6898656898656899  0.3349000000000000
  0.5140415140415141  0.9279609279609279  0.3349000000000000
  0.6532356532356534  0.8949938949938949  0.3349000000000000
  0.6080586080586081  0.9963369963369962  0.3349000000000000
  0.4114774114774115  0.6715506715506715  0.3349000000000000
  0.6483516483516485  0.9780219780219780  0.3349000000000000
  0.4505494505494506  0.6739926739926740  0.3349000000000000
  0.4700854700854701  0.6752136752136751  0.3349000000000000
  0.4688644688644689  0.6959706959706957  0.3349000000000000
  0.4884004884004886  0.6971916971916972  0.3349000000000000
  0.4871794871794873  0.7179487179487178  0.3349000000000000
  0.5067155067155068  0.7191697191697192  0.3349000000000000
  0.5054945054945055  0.7399267399267399  0.3349000000000000
  0.5250305250305251  0.7411477411477412  0.3349000000000000
  0.5238095238095238  0.7619047619047618  0.3349000000000000
  0.5433455433455434  0.7631257631257630  0.3349000000000000
  0.5421245421245422  0.7838827838827839  0.3349000000000000
  0.5616605616605618  0.7851037851037850  0.3349000000000000
  0.5604395604395604  0.8058608058608058  0.3349000000000000
  0.5799755799755800  0.8070818070818070  0.3349000000000000
  0.5787545787545788  0.8278388278388279  0.3349000000000000
  0.5982905982905984  0.8290598290598290  0.3349000000000000
  0.5970695970695971  0.8498168498168497  0.3349000000000000
  0.6166056166056166  0.8510378510378510  0.3349000000000000
  0.6153846153846155  0.8717948717948716  0.3349000000000000
  0.6349206349206350  0.8730158730158729  0.3349000000000000
  0.6495726495726496  0.9572649572649572  0.3349000000000000
  0.6300366300366301  0.9560439560439559  0.3349000000000000
  0.6312576312576313  0.9352869352869352  0.3349000000000000
  0.6117216117216119  0.9340659340659337  0.3349000000000000
  0.4102564102564103  0.6923076923076922  0.3349000000000000
  0.4297924297924298  0.6935286935286935  0.3349000000000000
  0.4285714285714286  0.7142857142857142  0.3349000000000000
  0.4481074481074481  0.7155067155067155  0.3349000000000000
  0.4468864468864470  0.7362637362637363  0.3349000000000000
  0.4664224664224664  0.7374847374847373  0.3349000000000000
  0.4652014652014653  0.7582417582417582  0.3349000000000000
  0.4847374847374848  0.7594627594627593  0.3349000000000000
  0.4835164835164836  0.7802197802197802  0.3349000000000000
  0.5030525030525032  0.7814407814407813  0.3349000000000000
  0.3919413919413920  0.6703296703296704  0.3349000000000000
  0.5018315018315019  0.8021978021978021  0.3349000000000000
  0.5201465201465202  0.8241758241758240  0.3349000000000000
  0.5396825396825398  0.8253968253968255  0.3349000000000000
  0.5384615384615385  0.8461538461538460  0.3349000000000000
  0.5579975579975580  0.8473748473748473  0.3349000000000000
  0.5567765567765569  0.8681318681318680  0.3349000000000000
  0.5763125763125764  0.8693528693528692  0.3349000000000000
  0.5750915750915753  0.8901098901098901  0.3349000000000000
  0.5946275946275947  0.8913308913308913  0.3349000000000000
  0.5934065934065935  0.9120879120879120  0.3349000000000000
  0.6129426129426130  0.9133089133089131  0.3349000000000000
  0.5213675213675214  0.8034188034188033  0.3349000000000000
  0.6910866910866912  0.0573870573870573  0.0000000000000000
  0.6923076923076925  0.0769230769230769  0.0000000000000000
  0.7130647130647132  0.0757020757020757  0.0000000000000000
  0.7472527472527474  0.2967032967032966  0.3349000000000000
  0.7667887667887668  0.2979242979242979  0.3349000000000000
  0.7655677655677657  0.3186813186813186  0.3349000000000000
  0.7851037851037852  0.3199023199023199  0.3349000000000000
  0.6788766788766790  0.1257631257631257  0.3349000000000000
  0.6776556776556777  0.1465201465201465  0.3349000000000000
  0.6971916971916973  0.1477411477411477  0.3349000000000000
  0.6959706959706961  0.1684981684981685  0.3349000000000000
  0.7155067155067156  0.1697191697191697  0.3349000000000000
  0.7142857142857143  0.1904761904761904  0.3349000000000000
  0.7338217338217339  0.1916971916971917  0.3349000000000000
  0.7326007326007326  0.2124542124542124  0.3349000000000000
  0.7521367521367522  0.2136752136752136  0.3349000000000000
  0.7509157509157509  0.2344322344322344  0.3349000000000000
  0.7704517704517706  0.2356532356532356  0.3349000000000000
  0.7692307692307693  0.2564102564102563  0.3349000000000000
  0.7887667887667889  0.2576312576312575  0.3349000000000000
  0.7875457875457876  0.2783882783882784  0.3349000000000000
  0.8070818070818072  0.2796092796092795  0.3349000000000000
  0.8058608058608059  0.3003663003663003  0.3349000000000000
  0.8253968253968255  0.3015873015873015  0.3349000000000000
  0.7484737484737486  0.2759462759462759  0.3349000000000000
  0.7289377289377291  0.2747252747252746  0.3349000000000000
  0.7301587301587302  0.2539682539682540  0.3349000000000000
  0.7106227106227107  0.2527472527472527  0.3349000000000000
  0.9621489621489623  0.0610500610500611  0.0000000000000000
  0.9633699633699635  0.0805860805860806  0.0000000000000000
  0.9841269841269843  0.0793650793650794  0.0000000000000000
  0.9853479853479854  0.0989010989010990  0.0000000000000000
  0.9377289377289377  0.0036630036630037  0.0000000000000000
  0.9584859584859586  0.0024420024420024  0.0000000000000000
  0.9597069597069599  0.0219780219780220  0.0000000000000000
  0.9804639804639803  0.0207570207570208  0.0000000000000000
  0.9816849816849818  0.0402930402930404  0.0000000000000000
  0.6678876678876680  0.3125763125763126  0.3349000000000000
  0.8241758241758244  0.3223443223443222  0.3349000000000000
  0.6715506715506716  0.2503052503052504  0.3349000000000000
  0.6898656898656900  0.2722832722832722  0.3349000000000000
  0.6886446886446888  0.2930402930402930  0.3349000000000000
  0.7081807081807082  0.2942612942612942  0.3349000000000000
  0.7069597069597071  0.3150183150183150  0.3349000000000000
  0.7264957264957266  0.3162393162393162  0.3349000000000000
  0.6752136752136753  0.1880341880341879  0.3349000000000000
  0.6739926739926739  0.2087912087912088  0.3349000000000000
  0.6935286935286935  0.2100122100122100  0.3349000000000000
  0.6923076923076925  0.2307692307692308  0.3349000000000000
  0.7118437118437120  0.2319902319902319  0.3349000000000000
  0.6703296703296705  0.2710622710622710  0.3349000000000000
  0.9413919413919414  0.0622710622710623  0.0000000000000000
  0.8437118437118438  0.3235653235653235  0.3349000000000000
  0.6825396825396826  0.0634920634920635  0.3349000000000000
  0.6849816849816850  0.0219780219780219  0.3349000000000000
  0.7045177045177045  0.0231990231990232  0.3349000000000000
  0.7032967032967034  0.0439560439560440  0.3349000000000000
  0.7228327228327228  0.0451770451770452  0.3349000000000000
  0.7216117216117216  0.0659340659340660  0.3349000000000000
  0.7411477411477411  0.0671550671550671  0.3349000000000000
  0.7399267399267401  0.0879120879120878  0.3349000000000000
  0.7594627594627595  0.0891330891330891  0.3349000000000000
  0.7582417582417583  0.1098901098901098  0.3349000000000000
  0.7777777777777778  0.1111111111111111  0.3349000000000000
  0.7765567765567767  0.1318681318681318  0.3349000000000000
  0.7960927960927963  0.1330891330891331  0.3349000000000000
  0.7948717948717949  0.1538461538461538  0.3349000000000000
  0.8144078144078145  0.1550671550671550  0.3349000000000000
  0.8131868131868133  0.1758241758241758  0.3349000000000000
  0.8327228327228329  0.1770451770451770  0.3349000000000000
  0.8315018315018315  0.1978021978021978  0.3349000000000000
  0.8510378510378511  0.1990231990231989  0.3349000000000000
  0.8498168498168499  0.2197802197802198  0.3349000000000000
  0.8693528693528695  0.2210012210012209  0.3349000000000000
  0.8681318681318682  0.2417582417582417  0.3349000000000000
  0.6862026862026862  0.0012210012210012  0.3349000000000000
  0.6666666666666667 -0.0000000000000000  0.3349000000000000
  0.9023199023199024  0.3272283272283271  0.3349000000000000
  0.8827838827838829  0.3260073260073260  0.3349000000000000
  0.6813186813186815  0.0842490842490842  0.3349000000000000
  0.7008547008547010  0.0854700854700855  0.3349000000000000
  0.6996336996336997  0.1062271062271061  0.3349000000000000
  0.7191697191697193  0.1074481074481074  0.3349000000000000
  0.7179487179487181  0.1282051282051282  0.3349000000000000
  0.7374847374847376  0.1294261294261294  0.3349000000000000
  0.7362637362637363  0.1501831501831502  0.3349000000000000
  0.7557997557997559  0.1514041514041513  0.3349000000000000
  0.7545787545787547  0.1721611721611722  0.3349000000000000
  0.7741147741147743  0.1733821733821733  0.3349000000000000
  0.6642246642246643  0.0415140415140415  0.3349000000000000
  0.7728937728937729  0.1941391941391941  0.3349000000000000
  0.7912087912087913  0.2161172161172161  0.3349000000000000
  0.8107448107448109  0.2173382173382173  0.3349000000000000
  0.8095238095238096  0.2380952380952380  0.3349000000000000
  0.8290598290598291  0.2393162393162394  0.3349000000000000
  0.8278388278388279  0.2600732600732599  0.3349000000000000
  0.8473748473748476  0.2612942612942612  0.3349000000000000
  0.8461538461538463  0.2820512820512820  0.3349000000000000
  0.8656898656898658  0.2832722832722832  0.3349000000000000
  0.8644688644688645  0.3040293040293040  0.3349000000000000
  0.8840048840048841  0.3052503052503051  0.3349000000000000
  0.7924297924297925  0.1953601953601953  0.3349000000000000
  0.9401709401709403  0.0427350427350427  0.0000000000000000
  0.9194139194139194  0.0439560439560441  0.0000000000000000
  0.9181929181929184  0.0244200244200244  0.0000000000000000
  0.6874236874236874 -0.0012210012210012  0.0000000000000000
  0.6886446886446886  0.0183150183150183  0.0000000000000000
  0.7094017094017094  0.0170940170940171  0.0000000000000000
  0.7106227106227107  0.0366300366300366  0.0000000000000000
  0.7313797313797314  0.0354090354090354  0.0000000000000000
  0.7326007326007327  0.0549450549450549  0.0000000000000000
  0.7533577533577535  0.0537240537240537  0.0000000000000000
  0.7545787545787547  0.0732600732600732  0.0000000000000000
  0.7753357753357754  0.0720390720390721  0.0000000000000000
  0.7765567765567766  0.0915750915750916  0.0000000000000000
  0.7973137973137974  0.0903540903540904  0.0000000000000000
  0.7985347985347986  0.1098901098901099  0.0000000000000000
  0.8192918192918194  0.1086691086691086  0.0000000000000000
  0.8205128205128207  0.1282051282051282  0.0000000000000000
  0.8412698412698414  0.1269841269841270  0.0000000000000000
  0.8424908424908425  0.1465201465201465  0.0000000000000000
  0.8632478632478633  0.1452991452991454  0.0000000000000000
  0.8644688644688645  0.1648351648351649  0.0000000000000000
  0.8852258852258853  0.1636141636141636  0.0000000000000000
  0.8864468864468865  0.1831501831501832  0.0000000000000000
  0.9072039072039073  0.1819291819291819  0.0000000000000000
  0.6666666666666667 -0.0000000000000000  0.0000000000000000
  0.9780219780219781  0.3150183150183151  0.0000000000000000
  0.9768009768009769  0.2954822954822955  0.0000000000000000
  0.9560439560439562  0.2967032967032966  0.0000000000000000
  0.7142857142857143  0.0952380952380952  0.0000000000000000
  0.7350427350427352  0.0940170940170940  0.0000000000000000
  0.7362637362637363  0.1135531135531136  0.0000000000000000
  0.7570207570207570  0.1123321123321123  0.0000000000000000
  0.7582417582417583  0.1318681318681318  0.0000000000000000
  0.7789987789987790  0.1306471306471306  0.0000000000000000
  0.7802197802197802  0.1501831501831502  0.0000000000000000
  0.8009768009768010  0.1489621489621490  0.0000000000000000
  0.8021978021978023  0.1684981684981685  0.0000000000000000
  0.8229548229548231  0.1672771672771673  0.0000000000000000
  0.9084249084249084  0.2014652014652014  0.0000000000000000
  0.8241758241758244  0.1868131868131868  0.0000000000000000
  0.8461538461538461  0.2051282051282052  0.0000000000000000
  0.8669108669108671  0.2039072039072039  0.0000000000000000
  0.8681318681318683  0.2234432234432233  0.0000000000000000
  0.8888888888888890  0.2222222222222223  0.0000000000000000
  0.8901098901098902  0.2417582417582418  0.0000000000000000
  0.9108669108669110  0.2405372405372406  0.0000000000000000
  0.9120879120879123  0.2600732600732601  0.0000000000000000
  0.9328449328449330  0.2588522588522589  0.0000000000000000
  0.9340659340659342  0.2783882783882784  0.0000000000000000
  0.9548229548229549  0.2771672771672772  0.0000000000000000
  0.8449328449328450  0.1855921855921856  0.0000000000000000
  0.9291819291819292  0.2002442002442003  0.0000000000000000
  0.9304029304029305  0.2197802197802198  0.0000000000000000
  0.9511599511599512  0.2185592185592187  0.0000000000000000
  0.9914529914529916  0.1965811965811967  0.0000000000000000
  0.9926739926739929  0.2161172161172162  0.0000000000000000
  0.8131868131868132  0.0109890109890110  0.0000000000000000
  0.8339438339438340  0.0097680097680098  0.0000000000000000
  0.8351648351648352  0.0293040293040293  0.0000000000000000
  0.8559218559218560  0.0280830280830282  0.0000000000000000
  0.8571428571428572  0.0476190476190477  0.0000000000000000
  0.8778998778998780  0.0463980463980464  0.0000000000000000
  0.8791208791208792  0.0659340659340660  0.0000000000000000
  0.8998778998778999  0.0647130647130647  0.0000000000000000
  0.9706959706959708  0.1978021978021978  0.0000000000000000
  0.9010989010989011  0.0842490842490843  0.0000000000000000
  0.9230769230769230  0.1025641025641026  0.0000000000000000
  0.9438339438339438  0.1013431013431014  0.0000000000000000
  0.9450549450549451  0.1208791208791210  0.0000000000000000
  0.9658119658119659  0.1196581196581197  0.0000000000000000
  0.9670329670329672  0.1391941391941393  0.0000000000000000
  0.9877899877899878  0.1379731379731380  0.0000000000000000
  0.9890109890109891  0.1575091575091575  0.0000000000000000
  0.8754578754578756  0.0073260073260073  0.0000000000000000
  0.8962148962148963  0.0061050061050062  0.0000000000000000
  0.8974358974358976  0.0256410256410257  0.0000000000000000
  0.9218559218559219  0.0830280830280831  0.0000000000000000
  0.4041514041514042  0.7960927960927959  0.3349000000000000
  0.9694749694749696  0.1782661782661783  0.0000000000000000
  0.9474969474969475  0.1599511599511600  0.0000000000000000
  0.9523809523809524  0.2380952380952382  0.0000000000000000
  0.9731379731379732  0.2368742368742369  0.0000000000000000
  0.9743589743589745  0.2564102564102564  0.0000000000000000
  0.9951159951159952  0.2551892551892552  0.0000000000000000
  0.9963369963369965  0.2747252747252747  0.0000000000000000
  0.7509157509157509  0.0146520146520146  0.0000000000000000
  0.7716727716727717  0.0134310134310134  0.0000000000000000
  0.7728937728937729  0.0329670329670330  0.0000000000000000
  0.7936507936507937  0.0317460317460317  0.0000000000000000
  0.7948717948717949  0.0512820512820512  0.0000000000000000
  0.9487179487179488  0.1794871794871795  0.0000000000000000
  0.8156288156288156  0.0500610500610501  0.0000000000000000
  0.8376068376068376  0.0683760683760684  0.0000000000000000
  0.8388278388278388  0.0879120879120879  0.0000000000000000
  0.8595848595848596  0.0866910866910867  0.0000000000000000
  0.8608058608058607  0.1062271062271063  0.0000000000000000
  0.8815628815628817  0.1050061050061050  0.0000000000000000
  0.8827838827838829  0.1245421245421245  0.0000000000000000
  0.9035409035409037  0.1233211233211234  0.0000000000000000
  0.9047619047619049  0.1428571428571428  0.0000000000000000
  0.9255189255189256  0.1416361416361417  0.0000000000000000
  0.9267399267399268  0.1611721611721613  0.0000000000000000
  0.8168498168498169  0.0695970695970696  0.0000000000000000
  0.3846153846153847  0.7948717948717949  0.3349000000000000
  0.3858363858363859  0.7741147741147740  0.3349000000000000
  0.3663003663003663  0.7728937728937728  0.3349000000000000
  0.5067155067155067  0.3858363858363857  0.3349000000000000
  0.5054945054945055  0.4065934065934065  0.3349000000000000
  0.5250305250305251  0.4078144078144078  0.3349000000000000
  0.5238095238095238  0.4285714285714285  0.3349000000000000
  0.5433455433455434  0.4297924297924297  0.3349000000000000
  0.5421245421245422  0.4505494505494506  0.3349000000000000
  0.5616605616605618  0.4517704517704516  0.3349000000000000
  0.5604395604395604  0.4725274725274725  0.3349000000000000
  0.5799755799755800  0.4737484737484737  0.3349000000000000
  0.5787545787545787  0.4945054945054944  0.3349000000000000
  0.5982905982905984  0.4957264957264957  0.3349000000000000
  0.5970695970695973  0.5164835164835163  0.3349000000000000
  0.6166056166056166  0.5177045177045176  0.3349000000000000
  0.6153846153846155  0.5384615384615383  0.3349000000000000
  0.6349206349206350  0.5396825396825397  0.3349000000000000
  0.6336996336996339  0.5604395604395603  0.3349000000000000
  0.6532356532356534  0.5616605616605617  0.3349000000000000
  0.6520146520146521  0.5824175824175823  0.3349000000000000
  0.5091575091575092  0.3443223443223443  0.3349000000000000
  0.5286935286935288  0.3455433455433455  0.3349000000000000
  0.5274725274725276  0.3663003663003663  0.3349000000000000
  0.4871794871794873  0.3846153846153846  0.3349000000000000
  0.4884004884004885  0.3638583638583638  0.3349000000000000
  0.4688644688644689  0.3626373626373626  0.3349000000000000
  0.4700854700854701  0.3418803418803418  0.3349000000000000
  0.4652014652014653  0.4249084249084248  0.3349000000000000
  0.4847374847374848  0.4261294261294260  0.3349000000000000
  0.4835164835164836  0.4468864468864468  0.3349000000000000
  0.5030525030525032  0.4481074481074481  0.3349000000000000
  0.5018315018315019  0.4688644688644689  0.3349000000000000
  0.5213675213675214  0.4700854700854700  0.3349000000000000
  0.5201465201465202  0.4908424908424908  0.3349000000000000
  0.5396825396825398  0.4920634920634921  0.3349000000000000
  0.5384615384615385  0.5128205128205127  0.3349000000000000
  0.5579975579975580  0.5140415140415140  0.3349000000000000
  0.5470085470085471  0.3675213675213674  0.3349000000000000
  0.5567765567765569  0.5347985347985348  0.3349000000000000
  0.5750915750915753  0.5567765567765568  0.3349000000000000
  0.5946275946275947  0.5579975579975579  0.3349000000000000
  0.5934065934065935  0.5787545787545786  0.3349000000000000
  0.6129426129426130  0.5799755799755799  0.3349000000000000
  0.6117216117216119  0.6007326007326006  0.3349000000000000
  0.6312576312576313  0.6019536019536019  0.3349000000000000
  0.6300366300366301  0.6227106227106226  0.3349000000000000
  0.6495726495726496  0.6239316239316238  0.3349000000000000
  0.6483516483516485  0.6446886446886445  0.3349000000000000
  0.4505494505494506  0.3406593406593406  0.3349000000000000
  0.5763125763125764  0.5360195360195360  0.3349000000000000
  0.4664224664224664  0.4041514041514040  0.3349000000000000
  0.5457875457875458  0.3882783882783882  0.3349000000000000
  0.5641025641025642  0.4102564102564101  0.3349000000000000
  0.3321123321123322  0.9804639804639805  0.0000000000000000
  0.3504273504273505  0.9401709401709401  0.0000000000000000
  0.3516483516483517  0.9597069597069596  0.0000000000000000
  0.3724053724053725  0.9584859584859584  0.0000000000000000
  0.3736263736263737  0.9780219780219780  0.0000000000000000
  0.3943833943833944  0.9768009768009768  0.0000000000000000
  0.3956043956043956  0.9963369963369962  0.0000000000000000
  0.4163614163614164  0.9951159951159950  0.0000000000000000
  0.3467643467643468  0.8815628815628815  0.0000000000000000
  0.3479853479853480  0.9010989010989011  0.0000000000000000
  0.3687423687423688  0.8998778998778999  0.0000000000000000
  0.3699633699633700  0.9194139194139193  0.0000000000000000
  0.3907203907203908  0.9181929181929180  0.0000000000000000
  0.3919413919413920  0.9377289377289375  0.0000000000000000
  0.4126984126984128  0.9365079365079365  0.0000000000000000
  0.4139194139194140  0.9560439560439561  0.0000000000000000
  0.4346764346764348  0.9548229548229549  0.0000000000000000
  0.4358974358974360  0.9743589743589743  0.0000000000000000
  0.4566544566544567  0.9731379731379730  0.0000000000000000
  0.4578754578754580  0.9926739926739927  0.0000000000000000
  0.4786324786324787  0.9914529914529914  0.0000000000000000
  0.6630036630036630  0.3956043956043955  0.3349000000000000
  0.6446886446886447  0.3736263736263735  0.3349000000000000
  0.6459096459096459  0.3528693528693528  0.3349000000000000
  0.6263736263736264  0.3516483516483516  0.3349000000000000
  0.5836385836385838  0.4114774114774114  0.3349000000000000