 Graphene
 1.0000000000000000
     2.4600000000000000    0.0000000000000000    0.0000000000000000
     1.2300000000000002    2.1304224933097191    0.0000000000000000
     0.0000000000000000    0.0000000000000000   10.0000000000000000
 C  
   2
Direct
  0.0000000000000000  0.0000000000000000  0.0000000000000000
  0.3333333333333333  0.3333333333333333  0.0000000000000000
