 C 
 1.0000000000000000
    81.1799999999999926    0.0000000000000000    0.0000000000000000
    40.5900000000000034   70.3039422792207347    0.0000000000000000
     0.0000000000000000    0.0000000000000000   10.0000000000000000
 C  
 2160
Direct
  0.1010101010101010  0.6161616161616161  0.0000000000000000
  0.4350686542396415  0.4525641169423572  0.3000000000000000
  0.4525641169423574  0.4350686542396413  0.3000000000000000
  0.4525641169423574  0.4175731915369253  0.3000000000000000
  0.4700595796450733  0.4000777288342094  0.3000000000000000
  0.4700595796450734  0.3825822661314935  0.3000000000000000
  0.4875550423477893  0.3650868034287775  0.3000000000000000
  0.4875550423477893  0.3475913407260616  0.3000000000000000
  0.5050505050505052  0.3300958780233457  0.3000000000000000
  0.5050505050505052  0.3126004153206297  0.3000000000000000
  0.5225459677532212  0.2951049526179138  0.3000000000000000
  0.5225459677532212  0.2776094899151978  0.3000000000000000
  0.5400414304559370  0.2601140272124819  0.3000000000000000
  0.5400414304559370  0.2426185645097661  0.3000000000000000
  0.5575368931586531  0.2251231018070500  0.3000000000000000
  0.5575368931586531  0.2076276391043342  0.3000000000000000
  0.5750323558613689  0.1901321764016182  0.3000000000000000
  0.5750323558613689  0.1726367136989023  0.3000000000000000
  0.5925278185640848  0.1551412509961863  0.3000000000000000
  0.5925278185640849  0.1376457882934704  0.3000000000000000
  0.6100232812668007  0.1201503255907545  0.3000000000000000
  0.6100232812668008  0.1026548628880385  0.3000000000000000
  0.1901321764016185  0.9074461472129713  0.3000000000000000
  0.1901321764016184  0.8899506845102555  0.3000000000000000
  0.2076276391043345  0.8724552218075395  0.3000000000000000
  0.2076276391043343  0.8549597591048237  0.3000000000000000
  0.2251231018070504  0.8374642964021077  0.3000000000000000
  0.2251231018070504  0.8199688336993918  0.3000000000000000
  0.2426185645097662  0.8024733709966758  0.3000000000000000
  0.2426185645097662  0.7849779082939599  0.3000000000000000
  0.4350686542396415  0.4700595796450730  0.3000000000000000
  0.4175731915369255  0.4875550423477891  0.3000000000000000
  0.4175731915369255  0.5050505050505050  0.3000000000000000
  0.4000777288342097  0.5225459677532208  0.3000000000000000
  0.5750323558613688  0.2251231018070501  0.3000000000000000
  0.5925278185640849  0.2076276391043341  0.3000000000000000
  0.5925278185640849  0.1901321764016182  0.3000000000000000
  0.6100232812668007  0.1726367136989022  0.3000000000000000
  0.6100232812668007  0.1551412509961863  0.3000000000000000
  0.6275187439695168  0.1376457882934704  0.3000000000000000
  0.6275187439695168  0.1201503255907544  0.3000000000000000
  0.6450142066722326  0.1026548628880385  0.3000000000000000
  0.2076276391043343  0.9074461472129715  0.3000000000000000
  0.2251231018070502  0.8899506845102556  0.3000000000000000
  0.2251231018070503  0.8724552218075395  0.3000000000000000
  0.2426185645097663  0.8549597591048236  0.3000000000000000
  0.2426185645097662  0.8374642964021076  0.3000000000000000
  0.2601140272124823  0.8199688336993918  0.3000000000000000
  0.2601140272124821  0.7674824455912439  0.3000000000000000
  0.2601140272124823  0.8024733709966758  0.3000000000000000
  0.2776094899151981  0.7674824455912440  0.3000000000000000
  0.2951049526179141  0.7499869828885279  0.3000000000000000
  0.2951049526179140  0.7324915201858121  0.3000000000000000
  0.3126004153206300  0.7149960574830961  0.3000000000000000
  0.3126004153206300  0.6975005947803802  0.3000000000000000
  0.3300958780233458  0.6800051320776642  0.3000000000000000
  0.3300958780233458  0.6625096693749484  0.3000000000000000
  0.3475913407260617  0.6450142066722324  0.3000000000000000
  0.3475913407260618  0.6275187439695166  0.3000000000000000
  0.3650868034287777  0.6100232812668005  0.3000000000000000
  0.3650868034287777  0.5925278185640847  0.3000000000000000
  0.3825822661314936  0.5750323558613687  0.3000000000000000
  0.3825822661314936  0.5575368931586528  0.3000000000000000
  0.4000777288342096  0.5400414304559368  0.3000000000000000
  0.2776094899151982  0.7849779082939599  0.3000000000000000
  0.2601140272124822  0.7499869828885281  0.3000000000000000
  0.2776094899151980  0.7324915201858121  0.3000000000000000
  0.2776094899151980  0.7149960574830962  0.3000000000000000
  0.5925278185640849  0.1026548628880385  0.3000000000000000
  0.1726367136989025  0.8899506845102556  0.3000000000000000
  0.1726367136989025  0.8724552218075395  0.3000000000000000
  0.1901321764016183  0.8549597591048236  0.3000000000000000
  0.1901321764016184  0.8374642964021077  0.3000000000000000
  0.2076276391043343  0.8199688336993918  0.3000000000000000
  0.2076276391043343  0.8024733709966758  0.3000000000000000
  0.2251231018070502  0.7849779082939599  0.3000000000000000
  0.2251231018070503  0.7674824455912440  0.3000000000000000
  0.2426185645097663  0.7499869828885279  0.3000000000000000
  0.2426185645097662  0.7324915201858121  0.3000000000000000
  0.2601140272124821  0.7149960574830961  0.3000000000000000
  0.2601140272124822  0.6975005947803802  0.3000000000000000
  0.2776094899151981  0.6800051320776642  0.3000000000000000
  0.5750323558613688  0.1201503255907545  0.3000000000000000
  0.2776094899151981  0.6625096693749484  0.3000000000000000
  0.2951049526179140  0.6275187439695165  0.3000000000000000
  0.3126004153206299  0.6100232812668006  0.3000000000000000
  0.3126004153206300  0.5925278185640847  0.3000000000000000
  0.3300958780233459  0.5750323558613686  0.3000000000000000
  0.3300958780233458  0.5575368931586527  0.3000000000000000
  0.3475913407260617  0.5400414304559369  0.3000000000000000
  0.3475913407260617  0.5225459677532209  0.3000000000000000
  0.3650868034287778  0.5050505050505049  0.3000000000000000
  0.3650868034287778  0.4875550423477890  0.3000000000000000
  0.3825822661314936  0.4700595796450731  0.3000000000000000
  0.3825822661314936  0.4525641169423572  0.3000000000000000
  0.4000777288342096  0.4350686542396412  0.3000000000000000
  0.4000777288342096  0.4175731915369253  0.3000000000000000
  0.4175731915369255  0.4000777288342093  0.3000000000000000
  0.2951049526179139  0.6450142066722324  0.3000000000000000
  0.5750323558613688  0.2426185645097660  0.3000000000000000
  0.5750323558613689  0.1376457882934704  0.3000000000000000
  0.5575368931586531  0.1726367136989023  0.3000000000000000
  0.2951049526179141  0.6975005947803801  0.3000000000000000
  0.2951049526179141  0.6800051320776643  0.3000000000000000
  0.3126004153206299  0.6625096693749484  0.3000000000000000
  0.3126004153206299  0.6450142066722324  0.3000000000000000
  0.3300958780233458  0.6275187439695166  0.3000000000000000
  0.3300958780233458  0.6100232812668006  0.3000000000000000
  0.3475913407260618  0.5925278185640847  0.3000000000000000
  0.3475913407260618  0.5750323558613687  0.3000000000000000
  0.3650868034287777  0.5575368931586528  0.3000000000000000
  0.3650868034287777  0.5400414304559369  0.3000000000000000
  0.3825822661314937  0.5225459677532208  0.3000000000000000
  0.3825822661314937  0.5050505050505050  0.3000000000000000
  0.4000777288342096  0.4875550423477891  0.3000000000000000
  0.4000777288342096  0.4700595796450731  0.3000000000000000
  0.5575368931586530  0.1551412509961864  0.3000000000000000
  0.4175731915369256  0.4525641169423571  0.3000000000000000
  0.4350686542396415  0.4175731915369253  0.3000000000000000
  0.4350686542396415  0.4000777288342094  0.3000000000000000
  0.4525641169423574  0.3825822661314935  0.3000000000000000
  0.4525641169423574  0.3650868034287776  0.3000000000000000
  0.4700595796450734  0.3475913407260616  0.3000000000000000
  0.4700595796450733  0.3300958780233457  0.3000000000000000
  0.4875550423477893  0.3126004153206297  0.3000000000000000
  0.4875550423477893  0.2951049526179139  0.3000000000000000
  0.5050505050505051  0.2776094899151978  0.3000000000000000
  0.5050505050505052  0.2601140272124819  0.3000000000000000
  0.5225459677532212  0.2426185645097660  0.3000000000000000
  0.5225459677532212  0.2251231018070501  0.3000000000000000
  0.5400414304559370  0.2076276391043341  0.3000000000000000
  0.5400414304559370  0.1901321764016182  0.3000000000000000
  0.4175731915369255  0.4350686542396413  0.3000000000000000
  0.4175731915369255  0.3825822661314935  0.3000000000000000
  0.5575368931586530  0.2601140272124819  0.3000000000000000
  0.5400414304559371  0.2951049526179138  0.3000000000000000
  0.5925278185640849  0.2951049526179139  0.3000000000000000
  0.6100232812668007  0.2776094899151978  0.3000000000000000
  0.6100232812668007  0.2601140272124819  0.3000000000000000
  0.6275187439695167  0.2426185645097660  0.3000000000000000
  0.6275187439695167  0.2251231018070501  0.3000000000000000
  0.6450142066722326  0.2076276391043341  0.3000000000000000
  0.6450142066722326  0.1901321764016182  0.3000000000000000
  0.6625096693749486  0.1726367136989022  0.3000000000000000
  0.6625096693749486  0.1551412509961863  0.3000000000000000
  0.6800051320776644  0.1376457882934704  0.3000000000000000
  0.6800051320776644  0.1201503255907545  0.3000000000000000
  0.6975005947803804  0.1026548628880385  0.3000000000000000
  0.6975005947803805  0.0851594001853226  0.3000000000000000
  0.2601140272124823  0.9249416099156873  0.3000000000000000
  0.2601140272124822  0.9074461472129715  0.3000000000000000
  0.2776094899151981  0.8899506845102555  0.3000000000000000
  0.2776094899151981  0.8724552218075395  0.3000000000000000
  0.2951049526179141  0.8549597591048236  0.3000000000000000
  0.2951049526179140  0.8374642964021076  0.3000000000000000
  0.3126004153206301  0.8199688336993918  0.3000000000000000
  0.3126004153206300  0.8024733709966758  0.3000000000000000
  0.3300958780233459  0.7849779082939599  0.3000000000000000
  0.3300958780233459  0.7674824455912440  0.3000000000000000
  0.3475913407260619  0.7499869828885279  0.3000000000000000
  0.3475913407260617  0.7324915201858121  0.3000000000000000
  0.3650868034287777  0.7149960574830961  0.3000000000000000
  0.3650868034287778  0.6975005947803802  0.3000000000000000
  0.3825822661314936  0.6800051320776643  0.3000000000000000
  0.3825822661314937  0.6625096693749484  0.3000000000000000
  0.5925278185640849  0.3126004153206297  0.3000000000000000
  0.5750323558613690  0.3300958780233457  0.3000000000000000
  0.5750323558613690  0.3475913407260616  0.3000000000000000
  0.5575368931586531  0.3650868034287775  0.3000000000000000
  0.2951049526179140  0.8899506845102556  0.3000000000000000
  0.3126004153206300  0.8724552218075395  0.3000000000000000
  0.3126004153206300  0.8549597591048236  0.3000000000000000
  0.3300958780233460  0.8374642964021076  0.3000000000000000
  0.3300958780233459  0.8199688336993918  0.3000000000000000
  0.3475913407260618  0.8024733709966758  0.3000000000000000
  0.3475913407260617  0.7849779082939599  0.3000000000000000
  0.3650868034287779  0.7674824455912440  0.3000000000000000
  0.3650868034287779  0.7499869828885281  0.3000000000000000
  0.3825822661314938  0.7324915201858121  0.3000000000000000
  0.3825822661314937  0.7149960574830962  0.3000000000000000
  0.4000777288342096  0.6975005947803803  0.3000000000000000
  0.4000777288342095  0.6800051320776643  0.3000000000000000
  0.4175731915369256  0.6625096693749484  0.3000000000000000
  0.4000777288342096  0.6450142066722324  0.3000000000000000
  0.4175731915369255  0.6450142066722324  0.3000000000000000
  0.4350686542396414  0.6100232812668006  0.3000000000000000
  0.4525641169423574  0.5925278185640847  0.3000000000000000
  0.4525641169423575  0.5750323558613687  0.3000000000000000
  0.4700595796450733  0.5575368931586527  0.3000000000000000
  0.4700595796450733  0.5400414304559369  0.3000000000000000
  0.4875550423477894  0.5225459677532208  0.3000000000000000
  0.4875550423477893  0.5050505050505050  0.3000000000000000
  0.5050505050505052  0.4875550423477891  0.3000000000000000
  0.5050505050505052  0.4700595796450731  0.3000000000000000
  0.5225459677532210  0.4525641169423572  0.3000000000000000
  0.5225459677532212  0.4350686542396413  0.3000000000000000
  0.5400414304559371  0.4175731915369253  0.3000000000000000
  0.5400414304559371  0.4000777288342094  0.3000000000000000
  0.5575368931586530  0.3825822661314934  0.3000000000000000
  0.4350686542396414  0.6275187439695165  0.3000000000000000
  0.4000777288342097  0.6275187439695165  0.3000000000000000
  0.4175731915369255  0.6100232812668006  0.3000000000000000
  0.4175731915369255  0.5925278185640847  0.3000000000000000
  0.2776094899151981  0.8199688336993918  0.3000000000000000
  0.2951049526179141  0.8024733709966758  0.3000000000000000
  0.2951049526179140  0.7849779082939599  0.3000000000000000
  0.3126004153206299  0.7674824455912439  0.3000000000000000
  0.3126004153206299  0.7499869828885279  0.3000000000000000
  0.3300958780233459  0.7324915201858120  0.3000000000000000
  0.3300958780233459  0.7149960574830961  0.3000000000000000
  0.3475913407260618  0.6975005947803802  0.3000000000000000
  0.3475913407260618  0.6800051320776643  0.3000000000000000
  0.3650868034287777  0.6625096693749484  0.3000000000000000
  0.3650868034287777  0.6450142066722324  0.3000000000000000
  0.3825822661314937  0.6275187439695165  0.3000000000000000
  0.3825822661314937  0.6100232812668006  0.3000000000000000
  0.4000777288342095  0.5925278185640847  0.3000000000000000
  0.2776094899151981  0.8374642964021077  0.3000000000000000
  0.4000777288342096  0.5750323558613687  0.3000000000000000
  0.4175731915369256  0.5400414304559369  0.3000000000000000
  0.4350686542396415  0.5225459677532208  0.3000000000000000
  0.4350686542396414  0.5050505050505050  0.3000000000000000
  0.4525641169423574  0.4875550423477890  0.3000000000000000
  0.4525641169423574  0.4700595796450731  0.3000000000000000
  0.4700595796450734  0.4525641169423572  0.3000000000000000
  0.4700595796450734  0.4350686542396413  0.3000000000000000
  0.4875550423477892  0.4175731915369253  0.3000000000000000
  0.4875550423477892  0.4000777288342093  0.3000000000000000
  0.5050505050505051  0.3825822661314934  0.3000000000000000
  0.5050505050505052  0.3650868034287775  0.3000000000000000
  0.5225459677532212  0.3475913407260616  0.3000000000000000
  0.5225459677532212  0.3300958780233456  0.3000000000000000
  0.5400414304559370  0.3126004153206297  0.3000000000000000
  0.4175731915369256  0.5575368931586527  0.3000000000000000
  0.5575368931586530  0.2776094899151978  0.3000000000000000
  0.2601140272124823  0.8549597591048236  0.3000000000000000
  0.2426185645097661  0.8899506845102555  0.3000000000000000
  0.4350686542396415  0.5750323558613686  0.3000000000000000
  0.4350686542396415  0.5575368931586527  0.3000000000000000
  0.4525641169423573  0.5400414304559369  0.3000000000000000
  0.4525641169423575  0.5225459677532208  0.3000000000000000
  0.4700595796450734  0.5050505050505049  0.3000000000000000
  0.4700595796450734  0.4875550423477890  0.3000000000000000
  0.4875550423477891  0.4700595796450731  0.3000000000000000
  0.4875550423477892  0.4525641169423572  0.3000000000000000
  0.5050505050505052  0.4350686542396413  0.3000000000000000
  0.5050505050505052  0.4175731915369253  0.3000000000000000
  0.5225459677532212  0.4000777288342093  0.3000000000000000
  0.5225459677532212  0.3825822661314935  0.3000000000000000
  0.5400414304559371  0.3650868034287775  0.3000000000000000
  0.5400414304559371  0.3475913407260616  0.3000000000000000
  0.2601140272124823  0.8724552218075395  0.3000000000000000
  0.5575368931586531  0.3300958780233456  0.3000000000000000
  0.5750323558613688  0.2951049526179138  0.3000000000000000
  0.5750323558613688  0.2776094899151978  0.3000000000000000
  0.5925278185640850  0.2601140272124819  0.3000000000000000
  0.5925278185640849  0.2426185645097660  0.3000000000000000
  0.6100232812668007  0.2251231018070500  0.3000000000000000
  0.6100232812668007  0.2076276391043342  0.3000000000000000
  0.6275187439695168  0.1901321764016182  0.3000000000000000
  0.6275187439695168  0.1726367136989023  0.3000000000000000
  0.6450142066722325  0.1551412509961863  0.3000000000000000
  0.6450142066722326  0.1376457882934704  0.3000000000000000
  0.6625096693749485  0.1201503255907545  0.3000000000000000
  0.6625096693749487  0.1026548628880385  0.3000000000000000
  0.6800051320776644  0.0851594001853226  0.3000000000000000
  0.2426185645097662  0.9074461472129713  0.3000000000000000
  0.5575368931586531  0.3126004153206297  0.3000000000000000
  0.2951049526179141  0.9074461472129715  0.3000000000000000
  0.4350686542396414  0.3650868034287776  0.3000000000000000
  0.4525641169423574  0.3300958780233456  0.3000000000000000
  0.4000777288342096  0.2251231018070500  0.3000000000000000
  0.4000777288342096  0.2076276391043342  0.3000000000000000
  0.4175731915369255  0.1901321764016182  0.3000000000000000
  0.1026548628880387  0.7674824455912440  0.3000000000000000
  0.1026548628880387  0.7499869828885281  0.3000000000000000
  0.1201503255907547  0.7324915201858121  0.3000000000000000
  0.1201503255907546  0.7149960574830961  0.3000000000000000
  0.1376457882934707  0.6975005947803802  0.3000000000000000
  0.1376457882934705  0.6800051320776643  0.3000000000000000
  0.1551412509961866  0.6625096693749484  0.3000000000000000
  0.1551412509961865  0.6450142066722324  0.3000000000000000
  0.1726367136989025  0.6275187439695165  0.3000000000000000
  0.1726367136989024  0.6100232812668006  0.3000000000000000
  0.1901321764016183  0.5925278185640847  0.3000000000000000
  0.1901321764016184  0.5750323558613687  0.3000000000000000
  0.2076276391043343  0.5575368931586527  0.3000000000000000
  0.2076276391043343  0.5400414304559369  0.3000000000000000
  0.2251231018070503  0.5225459677532209  0.3000000000000000
  0.2251231018070502  0.5050505050505051  0.3000000000000000
  0.2426185645097662  0.4875550423477890  0.3000000000000000
  0.2426185645097662  0.4700595796450731  0.3000000000000000
  0.2601140272124822  0.4525641169423572  0.3000000000000000
  0.2601140272124821  0.4350686542396413  0.3000000000000000
  0.2776094899151980  0.4175731915369253  0.3000000000000000
  0.2776094899151980  0.4000777288342094  0.3000000000000000
  0.2951049526179139  0.3825822661314935  0.3000000000000000
  0.2951049526179139  0.3650868034287776  0.3000000000000000
  0.3126004153206299  0.3475913407260616  0.3000000000000000
  0.3126004153206299  0.3300958780233457  0.3000000000000000
  0.3825822661314937  0.2426185645097660  0.3000000000000000
  0.3825822661314936  0.2601140272124819  0.3000000000000000
  0.3650868034287778  0.2776094899151979  0.3000000000000000
  0.3650868034287776  0.2951049526179139  0.3000000000000000
  0.1026548628880387  0.8199688336993918  0.3000000000000000
  0.1026548628880387  0.8024733709966758  0.3000000000000000
  0.1201503255907547  0.7849779082939599  0.3000000000000000
  0.1201503255907546  0.7674824455912441  0.3000000000000000
  0.1376457882934706  0.7499869828885279  0.3000000000000000
  0.1376457882934706  0.7324915201858121  0.3000000000000000
  0.1551412509961865  0.7149960574830961  0.3000000000000000
  0.1551412509961865  0.6975005947803803  0.3000000000000000
  0.1726367136989025  0.6800051320776642  0.3000000000000000
  0.1726367136989025  0.6625096693749484  0.3000000000000000
  0.1901321764016184  0.6450142066722324  0.3000000000000000
  0.1901321764016184  0.6275187439695166  0.3000000000000000
  0.2076276391043343  0.6100232812668005  0.3000000000000000
  0.2076276391043343  0.5925278185640847  0.3000000000000000
  0.3300958780233458  0.3126004153206297  0.3000000000000000
  0.2251231018070503  0.5750323558613687  0.3000000000000000
  0.2426185645097661  0.5400414304559369  0.3000000000000000
  0.2426185645097661  0.5225459677532209  0.3000000000000000
  0.2601140272124821  0.5050505050505050  0.3000000000000000
  0.2601140272124821  0.4875550423477891  0.3000000000000000
  0.2776094899151980  0.4700595796450731  0.3000000000000000
  0.2776094899151980  0.4525641169423572  0.3000000000000000
  0.2951049526179139  0.4350686542396413  0.3000000000000000
  0.2951049526179140  0.4175731915369253  0.3000000000000000
  0.3126004153206299  0.4000777288342093  0.3000000000000000
  0.3126004153206299  0.3825822661314935  0.3000000000000000
  0.3300958780233458  0.3650868034287775  0.3000000000000000
  0.3300958780233459  0.3475913407260616  0.3000000000000000
  0.3475913407260617  0.3300958780233457  0.3000000000000000
  0.3475913407260618  0.3126004153206298  0.3000000000000000
  0.2251231018070503  0.5575368931586528  0.3000000000000000
  0.3300958780233458  0.2951049526179139  0.3000000000000000
  0.3475913407260617  0.2776094899151979  0.3000000000000000
  0.3475913407260617  0.2601140272124819  0.3000000000000000
  0.1201503255907547  0.6275187439695165  0.3000000000000000
  0.1201503255907547  0.6100232812668006  0.3000000000000000
  0.1376457882934705  0.5925278185640847  0.3000000000000000
  0.1376457882934707  0.5750323558613687  0.3000000000000000
  0.1551412509961866  0.5575368931586527  0.3000000000000000
  0.1551412509961865  0.5400414304559369  0.3000000000000000
  0.1726367136989024  0.5225459677532208  0.3000000000000000
  0.1726367136989025  0.5050505050505050  0.3000000000000000
  0.1901321764016183  0.4875550423477891  0.3000000000000000
  0.1901321764016184  0.4700595796450732  0.3000000000000000
  0.2076276391043343  0.4525641169423572  0.3000000000000000
  0.2076276391043343  0.4350686542396413  0.3000000000000000
  0.2251231018070502  0.4175731915369253  0.3000000000000000
  0.2251231018070503  0.4000777288342094  0.3000000000000000
  0.1026548628880388  0.6450142066722324  0.3000000000000000
  0.2426185645097662  0.3825822661314934  0.3000000000000000
  0.2601140272124821  0.3475913407260616  0.3000000000000000
  0.2601140272124821  0.3300958780233457  0.3000000000000000
  0.2776094899151980  0.3126004153206297  0.3000000000000000
  0.1026548628880388  0.6100232812668006  0.3000000000000000
  0.1026548628880387  0.5925278185640847  0.3000000000000000
  0.1201503255907546  0.5750323558613687  0.3000000000000000
  0.1201503255907546  0.5575368931586528  0.3000000000000000
  0.1376457882934706  0.5400414304559369  0.3000000000000000
  0.1376457882934706  0.5225459677532209  0.3000000000000000
  0.1551412509961864  0.5050505050505050  0.3000000000000000
  0.1551412509961865  0.4875550423477891  0.3000000000000000
  0.1726367136989023  0.4700595796450732  0.3000000000000000
  0.1726367136989024  0.4525641169423573  0.3000000000000000
  0.1901321764016183  0.4350686542396413  0.3000000000000000
  0.2426185645097662  0.3650868034287775  0.3000000000000000
  0.4525641169423574  0.1726367136989023  0.3000000000000000
  0.1026548628880387  0.6625096693749484  0.3000000000000000
  0.0851594001853228  0.6975005947803802  0.3000000000000000
  0.3650868034287777  0.2426185645097660  0.3000000000000000
  0.0851594001853228  0.7499869828885281  0.3000000000000000
  0.0851594001853228  0.7324915201858121  0.3000000000000000
  0.1026548628880387  0.7149960574830961  0.3000000000000000
  0.1026548628880388  0.6975005947803803  0.3000000000000000
  0.1201503255907546  0.6800051320776643  0.3000000000000000
  0.1201503255907547  0.6625096693749484  0.3000000000000000
  0.1376457882934706  0.6450142066722324  0.3000000000000000
  0.1376457882934707  0.6275187439695166  0.3000000000000000
  0.1551412509961865  0.6100232812668006  0.3000000000000000
  0.1551412509961865  0.5925278185640847  0.3000000000000000
  0.1726367136989025  0.5750323558613687  0.3000000000000000
  0.1726367136989025  0.5575368931586528  0.3000000000000000
  0.1901321764016184  0.5400414304559369  0.3000000000000000
  0.0851594001853228  0.6800051320776643  0.3000000000000000
  0.1901321764016184  0.5225459677532209  0.3000000000000000
  0.2076276391043343  0.4875550423477891  0.3000000000000000
  0.2251231018070503  0.4700595796450731  0.3000000000000000
  0.2251231018070503  0.4525641169423572  0.3000000000000000
  0.2426185645097662  0.4350686542396413  0.3000000000000000
  0.2426185645097662  0.4175731915369254  0.3000000000000000
  0.2601140272124822  0.4000777288342093  0.3000000000000000
  0.2601140272124821  0.3825822661314935  0.3000000000000000
  0.2776094899151980  0.3650868034287776  0.3000000000000000
  0.2776094899151981  0.3475913407260616  0.3000000000000000
  0.2951049526179140  0.3300958780233456  0.3000000000000000
  0.2951049526179139  0.3126004153206297  0.3000000000000000
  0.3126004153206299  0.2951049526179139  0.3000000000000000
  0.3126004153206298  0.2776094899151980  0.3000000000000000
  0.3300958780233458  0.2601140272124820  0.3000000000000000
  0.2076276391043343  0.5050505050505051  0.3000000000000000
  0.4350686542396416  0.3475913407260616  0.3000000000000000
  0.4350686542396415  0.1901321764016182  0.3000000000000000
  0.4175731915369255  0.2251231018070501  0.3000000000000000
  0.3475913407260618  0.4875550423477890  0.3000000000000000
  0.3475913407260618  0.4700595796450731  0.3000000000000000
  0.3650868034287777  0.4525641169423572  0.3000000000000000
  0.3650868034287778  0.4350686542396413  0.3000000000000000
  0.3825822661314937  0.4175731915369253  0.3000000000000000
  0.3825822661314937  0.4000777288342094  0.3000000000000000
  0.4000777288342095  0.3825822661314935  0.3000000000000000
  0.4000777288342096  0.3650868034287775  0.3000000000000000
  0.4175731915369254  0.3475913407260616  0.3000000000000000
  0.4175731915369255  0.3300958780233457  0.3000000000000000
  0.4350686542396415  0.3126004153206297  0.3000000000000000
  0.4350686542396415  0.2951049526179139  0.3000000000000000
  0.4525641169423574  0.2776094899151978  0.3000000000000000
  0.4525641169423574  0.2601140272124819  0.3000000000000000
  0.4700595796450733  0.2426185645097660  0.3000000000000000
  0.4700595796450733  0.2251231018070501  0.3000000000000000
  0.4875550423477892  0.2076276391043342  0.3000000000000000
  0.4875550423477892  0.1901321764016183  0.3000000000000000
  0.5050505050505052  0.1726367136989023  0.3000000000000000
  0.5050505050505052  0.1551412509961864  0.3000000000000000
  0.5225459677532210  0.1376457882934704  0.3000000000000000
  0.1376457882934706  0.8549597591048236  0.3000000000000000
  0.1376457882934706  0.8374642964021077  0.3000000000000000
  0.1551412509961865  0.8199688336993918  0.3000000000000000
  0.1551412509961866  0.8024733709966758  0.3000000000000000
  0.1726367136989025  0.7849779082939599  0.3000000000000000
  0.1726367136989024  0.7674824455912440  0.3000000000000000
  0.1901321764016184  0.7499869828885281  0.3000000000000000
  0.1901321764016185  0.7324915201858121  0.3000000000000000
  0.3300958780233458  0.5050505050505050  0.3000000000000000
  0.3300958780233458  0.5225459677532209  0.3000000000000000
  0.3126004153206299  0.5400414304559369  0.3000000000000000
  0.3126004153206300  0.5575368931586527  0.3000000000000000
  0.4525641169423574  0.3126004153206297  0.3000000000000000
  0.4700595796450733  0.2951049526179138  0.3000000000000000
  0.4700595796450734  0.2776094899151979  0.3000000000000000
  0.4875550423477893  0.2601140272124819  0.3000000000000000
  0.4875550423477892  0.2426185645097660  0.3000000000000000
  0.5050505050505051  0.2251231018070501  0.3000000000000000
  0.5050505050505051  0.2076276391043342  0.3000000000000000
  0.5225459677532212  0.1901321764016182  0.3000000000000000
  0.5225459677532210  0.1726367136989023  0.3000000000000000
  0.5400414304559370  0.1551412509961863  0.3000000000000000
  0.5400414304559370  0.1376457882934705  0.3000000000000000
  0.5575368931586530  0.1201503255907544  0.3000000000000000
  0.1551412509961866  0.8724552218075395  0.3000000000000000
  0.1551412509961866  0.8549597591048236  0.3000000000000000
  0.2076276391043343  0.7149960574830961  0.3000000000000000
  0.1726367136989025  0.8374642964021077  0.3000000000000000
  0.1901321764016185  0.8024733709966758  0.3000000000000000
  0.1901321764016185  0.7849779082939599  0.3000000000000000
  0.2076276391043343  0.7674824455912440  0.3000000000000000
  0.2076276391043344  0.7499869828885281  0.3000000000000000
  0.2251231018070503  0.7324915201858121  0.3000000000000000
  0.2251231018070504  0.7149960574830961  0.3000000000000000
  0.2426185645097663  0.6975005947803802  0.3000000000000000
  0.2426185645097663  0.6800051320776643  0.3000000000000000
  0.2601140272124822  0.6625096693749484  0.3000000000000000
  0.2601140272124821  0.6450142066722324  0.3000000000000000
  0.2776094899151982  0.6275187439695165  0.3000000000000000
  0.2776094899151980  0.6100232812668006  0.3000000000000000
  0.2951049526179140  0.5925278185640847  0.3000000000000000
  0.2951049526179140  0.5750323558613687  0.3000000000000000
  0.1726367136989025  0.8199688336993918  0.3000000000000000
  0.2076276391043344  0.6975005947803802  0.3000000000000000
  0.2251231018070503  0.6800051320776643  0.3000000000000000
  0.2251231018070502  0.6625096693749485  0.3000000000000000
  0.1551412509961866  0.7499869828885281  0.3000000000000000
  0.1726367136989024  0.7324915201858121  0.3000000000000000
  0.1726367136989025  0.7149960574830962  0.3000000000000000
  0.1901321764016184  0.6975005947803801  0.3000000000000000
  0.1901321764016184  0.6800051320776643  0.3000000000000000
  0.2076276391043343  0.6625096693749484  0.3000000000000000
  0.2076276391043344  0.6450142066722324  0.3000000000000000
  0.2251231018070503  0.6275187439695163  0.3000000000000000
  0.2251231018070503  0.6100232812668006  0.3000000000000000
  0.2426185645097662  0.5925278185640847  0.3000000000000000
  0.2426185645097663  0.5750323558613687  0.3000000000000000
  0.2601140272124821  0.5575368931586528  0.3000000000000000
  0.2601140272124821  0.5400414304559369  0.3000000000000000
  0.2776094899151981  0.5225459677532208  0.3000000000000000